Ni1 O1
1.0
      2.0508788640      -0.0000000080       1.1840749680
      0.6836260160       1.9335860480       1.1840749680
     -0.0000000000      -0.0000000000       2.3681499440
Ni O
1 1
direct
   0.0000000000000000   -0.0000000000000000   -0.0000000000000000 Ni
   0.5000000000000000    0.5000000000000000    0.5000010000000000 O
