Co2 O2
1.0
      2.2201008800       0.0000000240       1.2817763200
      0.7400344720       2.0931312800       1.2817763120
     -0.7023645200      -2.0664952960       3.7800821120
Co O
2 2
direct
   0.0010245500000000    0.9994877300000000    0.9984631800000000 Co
   0.0010181600000000    0.4994909200000000    0.4984717700000000 Co
   0.2490082800000000    0.3754958600000000    0.1264865800000000 O
   0.2489490100000000    0.8755254900000000    0.6265764800000000 O
