Co2 O2
1.0
      2.0813445750       0.0000000225       1.2016653000
      0.6937823175       1.9623105750       1.2016652925
     -0.6584667375      -1.9373393400       3.5438269800
Co O
2 2
direct
   0.0010245500000000    0.9994877300000000    0.9984631800000000 Co
   0.0010181600000000    0.4994909200000000    0.4984717700000000 Co
   0.2490082800000000    0.3754958600000000    0.1264865800000000 O
   0.2489490100000000    0.8755254900000000    0.6265764800000000 O
