Ni1 O1
1.0
      2.3072387220      -0.0000000090       1.3320843390
      0.7690792680       2.1752843040       1.3320843390
     -0.0000000000      -0.0000000000       2.6641686870
Ni O
1 1
direct
   0.0000000000000000   -0.0000000000000000   -0.0000000000000000 Ni
   0.5000000000000000    0.5000000000000000    0.5000010000000000 O
