Ni1 O1
1.0
      2.1790587930      -0.0000000085       1.2580796535
      0.7263526420       2.0544351760       1.2580796535
     -0.0000000000      -0.0000000000       2.5161593155
Ni O
1 1
direct
   0.0000000000000000   -0.0000000000000000   -0.0000000000000000 Ni
   0.5000000000000000    0.5000000000000000    0.5000010000000000 O
