Ni1 O1
1.0
      2.4354186510      -0.0000000095       1.4060890245
      0.8118058940       2.2961334320       1.4060890245
     -0.0000000000      -0.0000000000       2.8121780585
Ni O
1 1
direct
   0.0000000000000000   -0.0000000000000000   -0.0000000000000000 Ni
   0.5000000000000000    0.5000000000000000    0.5000010000000000 O
