Ni1 O1
1.0
      1.9226989350      -0.0000000075       1.1100702825
      0.6408993900       1.8127369200       1.1100702825
     -0.0000000000      -0.0000000000       2.2201405725
Ni O
1 1
direct
   0.0000000000000000   -0.0000000000000000   -0.0000000000000000 Ni
   0.5000000000000000    0.5000000000000000    0.5000010000000000 O
