Sr2 Ti2 O6
1.0
      4.0653036445       0.0000000000      -2.3466479975
     -1.3545744160       3.8329910965      -2.3466479975
      0.0057662045       0.0081533105       4.7046531085
Sr Ti O
2 2 6
direct
   0.7500000000000000    0.2500000000000000    0.5000000000000000 Sr
   0.2500000000000000    0.7500000000000000    0.5000000000000000 Sr
   0.5000000000000000    0.5000000000000000   -0.0000000000000000 Ti
  -0.0000000000000000    0.0000000000000000   -0.0000000000000000 Ti
   0.7709574500000000    0.2709574500000000   -0.0000000000000000 O
   0.7290425500000001    0.7709574500000000    0.0000000000000000 O
   0.2709574500000000    0.2290425500000000   -0.0000000000000000 O
   0.2290425500000000    0.7290425500000001    0.0000000000000000 O
   0.2500000000000000    0.2500000000000000    0.5000000000000000 O
   0.7500000000000000    0.7500000000000000    0.5000000000000000 O
