Sr2 Ti2 O6
1.0
      3.5870326275       0.0000000000      -2.0705717625
     -1.1952127200       3.3820509675      -2.0705717625
      0.0050878275       0.0071940975       4.1511645075
Sr Ti O
2 2 6
direct
   0.7500000000000000    0.2500000000000000    0.5000000000000000 Sr
   0.2500000000000000    0.7500000000000000    0.5000000000000000 Sr
   0.5000000000000000    0.5000000000000000   -0.0000000000000000 Ti
  -0.0000000000000000    0.0000000000000000   -0.0000000000000000 Ti
   0.7709574500000000    0.2709574500000000   -0.0000000000000000 O
   0.7290425500000001    0.7709574500000000    0.0000000000000000 O
   0.2709574500000000    0.2290425500000000   -0.0000000000000000 O
   0.2290425500000000    0.7290425500000001    0.0000000000000000 O
   0.2500000000000000    0.2500000000000000    0.5000000000000000 O
   0.7500000000000000    0.7500000000000000    0.5000000000000000 O
