Sr2 Ti2 O6
1.0
      3.8261681360       0.0000000000      -2.2086098800
     -1.2748935680       3.6075210320      -2.2086098800
      0.0054270160       0.0076737040       4.4279088080
Sr Ti O
2 2 6
direct
   0.7500000000000000    0.2500000000000000    0.5000000000000000 Sr
   0.2500000000000000    0.7500000000000000    0.5000000000000000 Sr
   0.5000000000000000    0.5000000000000000   -0.0000000000000000 Ti
  -0.0000000000000000    0.0000000000000000   -0.0000000000000000 Ti
   0.7709574500000000    0.2709574500000000   -0.0000000000000000 O
   0.7290425500000001    0.7709574500000000    0.0000000000000000 O
   0.2709574500000000    0.2290425500000000   -0.0000000000000000 O
   0.2290425500000000    0.7290425500000001    0.0000000000000000 O
   0.2500000000000000    0.2500000000000000    0.5000000000000000 O
   0.7500000000000000    0.7500000000000000    0.5000000000000000 O
