Fe4 O4
1.0
      1.7413184000      -1.7683512000      -0.0157888000
      1.7261528000       1.7257536000      -3.5407568000
      1.7308104000       1.7894648000       3.5733184000
Fe O
4 4
direct
   0.5000000000000000    0.0000000000000000    0.5000000000000000 Fe
   0.0000000000000000    0.5000000000000000    0.5000000000000000 Fe
   0.0000000000000000    0.0000000000000000    0.0000000000000000 Fe
   0.5000010000000000    0.5000000000000000    0.0000000000000000 Fe
   0.9682909999999991    0.2516760000000000    0.7420660000000000 O
   0.4683130000000000    0.2516730000000000    0.2420679999999990 O
   0.0317090000000000    0.7483240000000000    0.2579340000000000 O
   0.5316860000000000    0.7483270000000000    0.7579319999999991 O
