Co2 O2
1.0
      2.6363697950       0.0000000285       1.5221093800
      0.8787909355       2.4855933950       1.5221093705
     -0.8340578675      -2.4539631640       4.4888475080
Co O
2 2
direct
   0.0010245500000000    0.9994877300000000    0.9984631800000000 Co
   0.0010181600000000    0.4994909200000000    0.4984717700000000 Co
   0.2490082800000000    0.3754958600000000    0.1264865800000000 O
   0.2489490100000000    0.8755254900000000    0.6265764800000000 O
