Co2 O2
1.0
      2.4976134900       0.0000000270       1.4419983600
      0.8325387810       2.3547726900       1.4419983510
     -0.7901600850      -2.3248072080       4.2525923760
Co O
2 2
direct
   0.0010245500000000    0.9994877300000000    0.9984631800000000 Co
   0.0010181600000000    0.4994909200000000    0.4984717700000000 Co
   0.2490082800000000    0.3754958600000000    0.1264865800000000 O
   0.2489490100000000    0.8755254900000000    0.6265764800000000 O
