Co2 O2
1.0
      2.3588571850       0.0000000255       1.3618873400
      0.7862866265       2.2239519850       1.3618873315
     -0.7462623025      -2.1956512520       4.0163372440
Co O
2 2
direct
   0.0010245500000000    0.9994877300000000    0.9984631800000000 Co
   0.0010181600000000    0.4994909200000000    0.4984717700000000 Co
   0.2490082800000000    0.3754958600000000    0.1264865800000000 O
   0.2489490100000000    0.8755254900000000    0.6265764800000000 O
