Ti2 O4
1.0
      3.0155588635       0.0000000000      -1.1151903355
     -0.4124096810       2.9872253545      -1.1151903355
      0.0153212330       0.0175806690       4.6761755415
Ti O
2 4
direct
   0.8750000000000000    0.6250000000000000    0.2500000000000000 Ti
   0.1250000000000000    0.3750000000000000    0.7500000000000000 Ti
   0.3321526300000000    0.5821526300000001    0.1643042500000000 O
   0.0821526300000000    0.8321526300000001    0.6643042500000000 O
   0.9178473700000001    0.1678473700000000    0.3356957500000000 O
   0.6678473700000001    0.4178473700000000    0.8356957500000001 O
