Fe4 O4
1.0
      1.9589832000      -1.9893951000      -0.0177624000
      1.9419219000       1.9414728000      -3.9833514000
      1.9471617000       2.0131479000       4.0199832000
Fe O
4 4
direct
   0.5000000000000000    0.0000000000000000    0.5000000000000000 Fe
   0.0000000000000000    0.5000000000000000    0.5000000000000000 Fe
   0.0000000000000000    0.0000000000000000    0.0000000000000000 Fe
   0.5000010000000000    0.5000000000000000    0.0000000000000000 Fe
   0.9682909999999991    0.2516760000000000    0.7420660000000000 O
   0.4683130000000000    0.2516730000000000    0.2420679999999990 O
   0.0317090000000000    0.7483240000000000    0.2579340000000000 O
   0.5316860000000000    0.7483270000000000    0.7579319999999991 O
